sat
(:max-memory                   18.13
 :memory                       18.01
 :nlsat-irrational-assignments 1
 :nlsat-propagations           8
 :nlsat-stages                 4
 :num-allocs                   6867
 :rlimit-count                 1721
 :time                         0.00)
